%chk=H2O
#HF/3-21G*
Opt
Test

H2O

0 1
O      5.686778377857      5.941910040705      7.142111768489
H      5.867675930814      6.912267177943      7.078617998054
H      5.055132064528      5.837283186365      7.911992472236


